solution status: optimal solution found
objective value:                     226092.785053805
d11(0,0)                                            1 	(obj:0)
d11(1,1)                                            1 	(obj:0)
d11(1,2)                                            1 	(obj:0)
d11(3,7)                                            1 	(obj:0)
d11(3,8)                                            1 	(obj:0)
d11(3,9)                                            1 	(obj:0)
d11(3,11)                                           1 	(obj:0)
d11(3,12)                                           1 	(obj:0)
d11(3,13)                                           1 	(obj:0)
d11(3,14)                                           1 	(obj:0)
d11(4,17)                                           1 	(obj:0)
d11(4,19)                                           1 	(obj:0)
d11(4,23)                                           1 	(obj:0)
d11(4,25)                                           1 	(obj:0)
d11(4,27)                                           1 	(obj:0)
d11(4,29)                                           1 	(obj:0)
d11(5,31)                                           1 	(obj:0)
d11(5,33)                                           1 	(obj:0)
d11(5,35)                                           1 	(obj:0)
d11(5,37)                                           1 	(obj:0)
d11(5,39)                                           1 	(obj:0)
d11(5,41)                                           1 	(obj:0)
d11(5,43)                                           1 	(obj:0)
d11(5,45)                                           1 	(obj:0)
d11(5,47)                                           1 	(obj:0)
d11(5,49)                                           1 	(obj:0)
d11(5,51)                                           1 	(obj:0)
d11(5,53)                                           1 	(obj:0)
d11(5,55)                                           1 	(obj:0)
d11(5,57)                                           1 	(obj:0)
d11(5,59)                                           1 	(obj:0)
d11(5,61)                                           1 	(obj:0)
d11(6,67)                                           1 	(obj:0)
d11(6,71)                                           1 	(obj:0)
d11(6,73)                                           1 	(obj:0)
d11(6,77)                                           1 	(obj:0)
d11(6,81)                                           1 	(obj:0)
d11(6,83)                                           1 	(obj:0)
d11(6,89)                                           1 	(obj:0)
d11(6,91)                                           1 	(obj:0)
d11(6,93)                                           1 	(obj:0)
d11(6,95)                                           1 	(obj:0)
d11(6,97)                                           1 	(obj:0)
d11(6,99)                                           1 	(obj:0)
d11(6,101)                                          1 	(obj:0)
d11(6,103)                                          1 	(obj:0)
d11(6,105)                                          1 	(obj:0)
d11(6,107)                                          1 	(obj:0)
d11(6,109)                                          1 	(obj:0)
d11(6,111)                                          1 	(obj:0)
d11(6,113)                                          1 	(obj:0)
d11(6,115)                                          1 	(obj:0)
d11(6,117)                                          1 	(obj:0)
d11(6,119)                                          1 	(obj:0)
d11(6,121)                                          1 	(obj:0)
d11(6,123)                                          1 	(obj:0)
d11(6,125)                                          1 	(obj:0)
d12(2,4)                                            1 	(obj:0)
d12(2,6)                                            1 	(obj:0)
d12(4,16)                                           1 	(obj:0)
d12(4,18)                                           1 	(obj:0)
d12(4,20)                                           1 	(obj:0)
d12(4,22)                                           1 	(obj:0)
d12(4,24)                                           1 	(obj:0)
d12(4,26)                                           1 	(obj:0)
d12(4,28)                                           1 	(obj:0)
d12(4,30)                                           1 	(obj:0)
d12(6,64)                                           1 	(obj:0)
d12(6,66)                                           1 	(obj:0)
d12(6,68)                                           1 	(obj:0)
d12(6,70)                                           1 	(obj:0)
d12(6,72)                                           1 	(obj:0)
d12(6,74)                                           1 	(obj:0)
d12(6,76)                                           1 	(obj:0)
d12(6,78)                                           1 	(obj:0)
d12(6,80)                                           1 	(obj:0)
d12(6,82)                                           1 	(obj:0)
d12(6,84)                                           1 	(obj:0)
d12(6,86)                                           1 	(obj:0)
d12(6,88)                                           1 	(obj:0)
d12(6,90)                                           1 	(obj:0)
d12(6,92)                                           1 	(obj:0)
d12(6,94)                                           1 	(obj:0)
d12(6,96)                                           1 	(obj:0)
d12(6,98)                                           1 	(obj:0)
d12(6,100)                                          1 	(obj:0)
d12(6,102)                                          1 	(obj:0)
d12(6,104)                                          1 	(obj:0)
d12(6,106)                                          1 	(obj:0)
d12(6,108)                                          1 	(obj:0)
d12(6,110)                                          1 	(obj:0)
d12(6,112)                                          1 	(obj:0)
d12(6,114)                                          1 	(obj:0)
d12(6,116)                                          1 	(obj:0)
d12(6,118)                                          1 	(obj:0)
d12(6,120)                                          1 	(obj:0)
d12(6,122)                                          1 	(obj:0)
d12(6,124)                                          1 	(obj:0)
d12(6,126)                                          1 	(obj:0)
d21(3,7)                                            1 	(obj:0)
d21(4,15)                                           1 	(obj:0)
d21(4,16)                                           1 	(obj:0)
d21(4,17)                                           1 	(obj:0)
d21(4,19)                                           1 	(obj:0)
d21(4,23)                                           1 	(obj:0)
d21(5,31)                                           1 	(obj:0)
d21(5,32)                                           1 	(obj:0)
d21(5,33)                                           1 	(obj:0)
d21(5,34)                                           1 	(obj:0)
d21(5,35)                                           1 	(obj:0)
d21(5,36)                                           1 	(obj:0)
d21(5,37)                                           1 	(obj:0)
d21(5,39)                                           1 	(obj:0)
d21(5,40)                                           1 	(obj:0)
d21(5,41)                                           1 	(obj:0)
d21(5,43)                                           1 	(obj:0)
d21(5,47)                                           1 	(obj:0)
d21(5,48)                                           1 	(obj:0)
d21(5,49)                                           1 	(obj:0)
d21(5,51)                                           1 	(obj:0)
d21(5,55)                                           1 	(obj:0)
d21(6,63)                                           1 	(obj:0)
d21(6,64)                                           1 	(obj:0)
d21(6,65)                                           1 	(obj:0)
d21(6,66)                                           1 	(obj:0)
d21(6,67)                                           1 	(obj:0)
d21(6,68)                                           1 	(obj:0)
d21(6,69)                                           1 	(obj:0)
d21(6,70)                                           1 	(obj:0)
d21(6,71)                                           1 	(obj:0)
d21(6,72)                                           1 	(obj:0)
d21(6,73)                                           1 	(obj:0)
d21(6,75)                                           1 	(obj:0)
d21(6,76)                                           1 	(obj:0)
d21(6,79)                                           1 	(obj:0)
d21(6,80)                                           1 	(obj:0)
d21(6,81)                                           1 	(obj:0)
d21(6,82)                                           1 	(obj:0)
d21(6,83)                                           1 	(obj:0)
d21(6,84)                                           1 	(obj:0)
d21(6,85)                                           1 	(obj:0)
d21(6,87)                                           1 	(obj:0)
d21(6,88)                                           1 	(obj:0)
d21(6,91)                                           1 	(obj:0)
d21(6,95)                                           1 	(obj:0)
d21(6,96)                                           1 	(obj:0)
d21(6,97)                                           1 	(obj:0)
d21(6,99)                                           1 	(obj:0)
d21(6,100)                                          1 	(obj:0)
d21(6,103)                                          1 	(obj:0)
d21(6,111)                                          1 	(obj:0)
d21(6,112)                                          1 	(obj:0)
d21(6,115)                                          1 	(obj:0)
y2(6,100)                            1385.48851144895 	(obj:0)
y2(6,102)                            1385.48851144895 	(obj:0)
y2(6,104)                            1385.48851144895 	(obj:0)
y2(6,106)                            1385.48851144895 	(obj:0)
y2(6,108)                            1385.48851144895 	(obj:0)
y2(6,110)                            1385.48851144895 	(obj:0)
y2(6,112)                            1385.48851144895 	(obj:0)
y2(6,114)                            1385.48851144895 	(obj:0)
y2(6,116)                            1385.48851144895 	(obj:0)
y2(6,118)                            1385.48851144895 	(obj:0)
y2(6,120)                            1385.48851144895 	(obj:0)
y2(6,122)                            1385.48851144895 	(obj:0)
y2(6,124)                            1385.48851144895 	(obj:0)
y2(6,126)                            1385.48851144895 	(obj:0)
STE(1,1)                             3408.78591412945 	(obj:0)
STE(0,0)                                         7875 	(obj:0)
STE(1,2)                             5067.03581301827 	(obj:0)
STE(2,3)                             2778.78591412945 	(obj:0)
STE(2,4)                             4095.00000000596 	(obj:0)
STE(2,5)                             4437.03581301827 	(obj:0)
STE(2,6)                             5753.24989889478 	(obj:0)
STE(3,7)                             490.536015240638 	(obj:0)
STE(3,8)                             2148.78591412945 	(obj:0)
STE(3,9)                             1806.75010111714 	(obj:0)
STE(3,10)                            3465.00000000596 	(obj:0)
STE(3,11)                            2148.78591412945 	(obj:0)
STE(3,12)                            3807.03581301827 	(obj:0)
STE(3,13)                            3465.00000000596 	(obj:0)
STE(3,14)                            5123.24989889478 	(obj:0)
STE(4,15)                           -139.463984759362 	(obj:0)
STE(4,16)                            1176.75010111714 	(obj:0)
STE(4,17)                            1518.78591412945 	(obj:0)
STE(4,18)                            2835.00000000596 	(obj:0)
STE(4,19)                            1176.75010111714 	(obj:0)
STE(4,20)                            2492.96418699365 	(obj:0)
STE(4,21)                            2835.00000000596 	(obj:0)
STE(4,22)                            4151.21408588247 	(obj:0)
STE(4,23)                            1518.78591412945 	(obj:0)
STE(4,24)                            2835.00000000596 	(obj:0)
STE(4,25)                            3177.03581301827 	(obj:0)
STE(4,26)                            4493.24989889478 	(obj:0)
STE(4,27)                            2835.00000000596 	(obj:0)
STE(4,28)                            4151.21408588247 	(obj:0)
STE(4,29)                            4493.24989889478 	(obj:0)
STE(4,30)                            5809.46398477128 	(obj:0)
STE(5,31)                           -2427.71388364823 	(obj:0)
STE(5,32)                           -769.463984759362 	(obj:0)
STE(5,33)                           -1111.49979777173 	(obj:0)
STE(5,34)                            546.750101117144 	(obj:0)
STE(5,35)                           -769.463984759416 	(obj:0)
STE(5,36)                            888.785914129455 	(obj:0)
STE(5,37)                            546.750101117089 	(obj:0)
STE(5,38)                            2205.00000000596 	(obj:0)
STE(5,39)                           -1111.49979777173 	(obj:0)
STE(5,40)                            546.750101117145 	(obj:0)
STE(5,41)                            204.714288104779 	(obj:0)
STE(5,42)                            1862.96418699365 	(obj:0)
STE(5,43)                             546.75010111709 	(obj:0)
STE(5,44)                            2205.00000000596 	(obj:0)
STE(5,45)                             1862.9641869936 	(obj:0)
STE(5,46)                            3521.21408588247 	(obj:0)
STE(5,47)                           -769.463984759416 	(obj:0)
STE(5,48)                            888.785914129455 	(obj:0)
STE(5,49)                            546.750101117089 	(obj:0)
STE(5,50)                            2205.00000000596 	(obj:0)
STE(5,51)                              888.7859141294 	(obj:0)
STE(5,52)                            2547.03581301827 	(obj:0)
STE(5,53)                            2205.00000000591 	(obj:0)
STE(5,54)                            3863.24989889478 	(obj:0)
STE(5,55)                            546.750101117091 	(obj:0)
STE(5,56)                            2205.00000000596 	(obj:0)
STE(5,57)                             1862.9641869936 	(obj:0)
STE(5,58)                            3521.21408588247 	(obj:0)
STE(5,59)                            2205.00000000591 	(obj:0)
STE(5,60)                            3863.24989889478 	(obj:0)
STE(5,61)                            3521.21408588241 	(obj:0)
STE(5,62)                            5179.46398477128 	(obj:0)
STE(6,63)                           -3057.71388364823 	(obj:0)
STE(6,64)                           -1741.49979777173 	(obj:0)
STE(6,65)                           -1399.46398475936 	(obj:0)
STE(6,66)                           -83.2498988828562 	(obj:0)
STE(6,67)                           -1741.49979777173 	(obj:0)
STE(6,68)                           -425.285711895221 	(obj:0)
STE(6,69)                            -83.249898882856 	(obj:0)
STE(6,70)                            1232.96418699365 	(obj:0)
STE(6,71)                           -1399.46398475942 	(obj:0)
STE(6,72)                           -83.2498988829107 	(obj:0)
STE(6,73)                            258.785914129455 	(obj:0)
STE(6,74)                            1575.00000000596 	(obj:0)
STE(6,75)                           -83.2498988829107 	(obj:0)
STE(6,76)                             1232.9641869936 	(obj:0)
STE(6,77)                            1575.00000000596 	(obj:0)
STE(6,78)                            2891.21408588247 	(obj:0)
STE(6,79)                           -1741.49979777173 	(obj:0)
STE(6,80)                           -425.285711895221 	(obj:0)
STE(6,81)                           -83.2498988828554 	(obj:0)
STE(6,82)                            1232.96418699365 	(obj:0)
STE(6,83)                           -425.285711895221 	(obj:0)
STE(6,84)                            890.928373981285 	(obj:0)
STE(6,85)                            1232.96418699365 	(obj:0)
STE(6,86)                            2549.17827287016 	(obj:0)
STE(6,87)                           -83.2498988829097 	(obj:0)
STE(6,88)                             1232.9641869936 	(obj:0)
STE(6,89)                            1575.00000000596 	(obj:0)
STE(6,90)                            2891.21408588247 	(obj:0)
STE(6,91)                             1232.9641869936 	(obj:0)
STE(6,92)                             2549.1782728701 	(obj:0)
STE(6,93)                            2891.21408588247 	(obj:0)
STE(6,94)                            4207.42817175897 	(obj:0)
STE(6,95)                           -1399.46398475942 	(obj:0)
STE(6,96)                           -83.2498988829107 	(obj:0)
STE(6,97)                            258.785914129455 	(obj:0)
STE(6,98)                            1575.00000000596 	(obj:0)
STE(6,99)                           -83.2498988829107 	(obj:0)
STE(6,100)                            1232.9641869936 	(obj:0)
STE(6,101)                           1575.00000000596 	(obj:0)
STE(6,102)                           2891.21408588247 	(obj:0)
STE(6,103)                           258.785914129401 	(obj:0)
STE(6,104)                           1575.00000000591 	(obj:0)
STE(6,105)                           1917.03581301827 	(obj:0)
STE(6,106)                           3233.24989889478 	(obj:0)
STE(6,107)                           1575.00000000591 	(obj:0)
STE(6,108)                           2891.21408588241 	(obj:0)
STE(6,109)                           3233.24989889478 	(obj:0)
STE(6,110)                           4549.46398477128 	(obj:0)
STE(6,111)                          -83.2498988829094 	(obj:0)
STE(6,112)                            1232.9641869936 	(obj:0)
STE(6,113)                           1575.00000000596 	(obj:0)
STE(6,114)                           2891.21408588247 	(obj:0)
STE(6,115)                            1232.9641869936 	(obj:0)
STE(6,116)                            2549.1782728701 	(obj:0)
STE(6,117)                           2891.21408588247 	(obj:0)
STE(6,118)                           4207.42817175897 	(obj:0)
STE(6,119)                           1575.00000000591 	(obj:0)
STE(6,120)                           2891.21408588241 	(obj:0)
STE(6,121)                           3233.24989889478 	(obj:0)
STE(6,122)                           4549.46398477128 	(obj:0)
STE(6,123)                           2891.21408588241 	(obj:0)
STE(6,124)                           4207.42817175892 	(obj:0)
STE(6,125)                           4549.46398477128 	(obj:0)
STE(6,126)                           5865.67807064779 	(obj:0)
BG(5)                                723.522421037851 	(obj:10)
BG(6)                                2673.40993877551 	(obj:10)
AVE(1)                               3259.55177567504 	(obj:0)
WB(2)                                3259.55588804169 	(obj:0)
AVE(2)                               3259.55588804169 	(obj:0)
WB(3)                                3579.36165209166 	(obj:0)
AVE(3)                               3579.36165209166 	(obj:0)
WB(4)                                3579.36576445831 	(obj:0)
AVE(4)                               3579.36576445831 	(obj:0)
AVE(5)                               3472.77007794174 	(obj:0)
WB(6)                                 3046.3618950668 	(obj:0)
AVE(6)                                3046.3618950668 	(obj:0)
WG(1)                                3259.55177567504 	(obj:10)
WG(5)                                3472.77007794174 	(obj:10)
BG(1)                                 2936.9119154306 	(obj:10)
BG(2)                                2673.40993877551 	(obj:10)
BG(3)                                4196.29249897956 	(obj:10)
BG(4)                                2673.40993877551 	(obj:10)
y1(1,1)                              3452.59267728349 	(obj:0)
y1(1,2)                              1960.16776828356 	(obj:0)
y1(3,7)                              1492.42490899993 	(obj:0)
y1(3,9)                              1492.42490899993 	(obj:0)
y1(3,11)                             1492.42490899993 	(obj:0)
y1(3,13)                             1492.42490899993 	(obj:0)
y1(5,31)                             1492.42490899998 	(obj:0)
y1(5,33)                             1492.42490899998 	(obj:0)
y1(5,35)                             1492.42490899998 	(obj:0)
y1(5,37)                             1492.42490899998 	(obj:0)
y1(5,39)                             1492.42490899998 	(obj:0)
y1(5,41)                             1492.42490899998 	(obj:0)
y1(5,43)                             1492.42490899998 	(obj:0)
y1(5,45)                             1492.42490899998 	(obj:0)
y1(5,47)                             1492.42490899998 	(obj:0)
y1(5,49)                             1492.42490899998 	(obj:0)
y1(5,51)                             1492.42490899998 	(obj:0)
y1(5,53)                             1492.42490899998 	(obj:0)
y1(5,55)                             1492.42490899998 	(obj:0)
y1(5,57)                             1492.42490899998 	(obj:0)
y1(5,59)                             1492.42490899998 	(obj:0)
y1(5,61)                             1492.42490899998 	(obj:0)
y2(2,4)                              1385.48851144895 	(obj:0)
y2(2,6)                              1385.48851144895 	(obj:0)
y2(4,16)                             1385.48851144895 	(obj:0)
y2(4,18)                             1385.48851144895 	(obj:0)
y2(4,20)                             1385.48851144895 	(obj:0)
y2(4,22)                             1385.48851144895 	(obj:0)
y2(4,24)                             1385.48851144895 	(obj:0)
y2(4,26)                             1385.48851144895 	(obj:0)
y2(4,28)                             1385.48851144895 	(obj:0)
y2(4,30)                             1385.48851144895 	(obj:0)
y2(6,64)                             1385.48851144895 	(obj:0)
y2(6,66)                             1385.48851144895 	(obj:0)
y2(6,68)                             1385.48851144895 	(obj:0)
y2(6,70)                             1385.48851144895 	(obj:0)
y2(6,72)                             1385.48851144895 	(obj:0)
y2(6,74)                             1385.48851144895 	(obj:0)
y2(6,76)                             1385.48851144895 	(obj:0)
y2(6,78)                             1385.48851144895 	(obj:0)
y2(6,80)                             1385.48851144895 	(obj:0)
y2(6,82)                             1385.48851144895 	(obj:0)
y2(6,84)                             1385.48851144895 	(obj:0)
y2(6,86)                             1385.48851144895 	(obj:0)
y2(6,88)                             1385.48851144895 	(obj:0)
y2(6,90)                             1385.48851144895 	(obj:0)
y2(6,92)                             1385.48851144895 	(obj:0)
y2(6,94)                             1385.48851144895 	(obj:0)
y2(6,96)                             1385.48851144895 	(obj:0)
y2(6,98)                             1385.48851144895 	(obj:0)
